1 1 -2 0
1 -3 -4 0
1 -3 5 0
1 -6 -7 0
1 6 3 0
1 -5 -8 0
1 -5 -9 0
1 -10 -11 0
1 -10 8 0
1 10 6 0
1 -10 -12 0
1 -10 13 0
1 10 -3 0
1 7 14 0
1 -7 15 0
1 7 -16 0
1 17 12 0
1 18 -10 0
1 -8 -5 0
1 -19 8 0
1 19 -20 0
1 19 -21 0
1 4 -22 0
1 -4 -23 0
1 24 12 0
1 25 -6 0
1 21 -12 0
1 26 -27 0
1 28 -29 0
1 22 19 0
1 -22 -27 0
1 -30 31 0
1 30 28 0
1 31 28 0
1 27 32 0
1 27 -33 0
1 32 26 0
1 -32 8 0
1 -34 35 0
1 -15 -36 0
1 -15 -37 0
1 15 -17 0
1 -38 -39 0
1 38 40 0
1 38 -41 0
1 36 -38 0
1 -36 -29 0
1 35 42 0
1 35 -41 0
1 -12 5 0
1 -12 43 0
1 14 -37 0
1 14 24 0
1 -14 36 0
1 14 -44 0
1 -29 45 0
1 29 -16 0
1 -39 -11 0
1 -39 25 0
1 39 16 0
1 -39 9 0
1 39 -29 0
1 -37 14 0
1 37 46 0
1 37 -34 0
1 -37 -43 0
1 37 33 0
1 -43 -14 0
1 43 -46 0
1 -43 -29 0
1 -45 29 0
1 -44 -12 0
1 -23 -19 0
1 23 27 0
1 -23 47 0
1 48 -37 0
1 46 -37 0
1 33 -9 0
1 33 -27 0
1 -33 47 0
1 -9 -11 0
1 11 9 0
1 -16 -46 0
1 -16 33 0
1 47 46 0
